NAME : random_18
COMMENT : 50 random nodes
TYPE : TSP
DIMENSION : 50
EDGE_WEIGHT_TYPE : EUC_2D
NODE_COORD_SECTION
1 813 712
2 803 529
3 381 489
4 80 26
5 251 202
6 217 463
7 462 430
8 425 473
9 781 429
10 251 595
11 147 8
12 750 210
13 236 325
14 881 197
15 935 374
16 287 838
17 50 645
18 756 967
19 656 340
20 54 633
21 205 635
22 158 972
23 290 542
24 250 107
25 443 82
26 104 738
27 50 489
28 289 399
29 355 510
30 422 640
31 220 179
32 367 81
33 584 686
34 499 86
35 191 219
36 675 150
37 189 180
38 219 880
39 217 361
40 195 632
41 525 788
42 489 636
43 235 194
44 113 207
45 851 742
46 950 76
47 523 976
48 209 759
49 262 774
50 622 797
EOF